WARNING: for repeatability, setting FPU to use double precision
============================[ Problem Statistics ]=============================
|                                                                             |
|  Number of variables:         14399                                         |
|  Number of clauses:          147220                                         |
|  Parse time:                   0.06 s                                       |
|  Eliminated clauses:           0.02 Mb                                      |
|  Simplification time:          0.08 s                                       |
|                                                                             |
============================[ Search Statistics ]==============================
| Conflicts |          ORIGINAL         |          LEARNT          | Progress |
|           |    Vars  Clauses Literals |    Limit  Clauses Lit/Cl |          |
===============================================================================
|       100 |    1939    21257    58237 |     7794      100     22 | 80.603 % |
|       250 |    1939    21257    58237 |     8573      250     24 | 80.603 % |
|       475 |    1939    21257    58237 |     9431      475     24 | 80.603 % |
|       812 |    1939    21257    58237 |    10374      812     37 | 80.603 % |
|      1318 |    1939    21257    58237 |    11411     1318     52 | 80.603 % |
===============================================================================
restarts              : 13
conflicts             : 1846           (11171 /sec)
decisions             : 10699          (0.00 % random) (64742 /sec)
propagations          : 134661         (814868 /sec)
conflict literals     : 97219          (4.83 % deleted)
Memory used           : 30.00 MB
CPU time              : 0.165255 s

SATISFIABLE
WARNING: for repeatability, setting FPU to use double precision
============================[ Problem Statistics ]=============================
|                                                                             |
|  Number of variables:         14399                                         |
|  Number of clauses:          147220                                         |
|  Parse time:                   0.05 s                                       |
|  Eliminated clauses:           0.02 Mb                                      |
|  Simplification time:          0.05 s                                       |
|                                                                             |
============================[ Search Statistics ]==============================
| Conflicts |          ORIGINAL         |          LEARNT          | Progress |
|           |    Vars  Clauses Literals |    Limit  Clauses Lit/Cl |          |
===============================================================================
|       100 |    1939    21257    58237 |     7794      100     22 | 80.603 % |
|       250 |    1939    21257    58237 |     8573      250     24 | 80.603 % |
|       475 |    1939    21257    58237 |     9431      475     24 | 80.603 % |
|       812 |    1939    21257    58237 |    10374      812     37 | 80.603 % |
|      1318 |    1939    21257    58237 |    11411     1318     52 | 80.603 % |
===============================================================================
restarts              : 13
conflicts             : 1846           (15651 /sec)
decisions             : 10699          (0.00 % random) (90712 /sec)
propagations          : 134661         (1141727 /sec)
conflict literals     : 97219          (4.83 % deleted)
Memory used           : 30.00 MB
CPU time              : 0.117945 s

SATISFIABLE
